Pt  O  H 
 1.0000000000000000
     9.6208524551714873    0.0000000000000000    0.0000000000000000
     0.0000000000000000    8.3318665111455665    0.0000000000000000
     0.0000000000000000    0.0000000000000000   38.0000000000000000
  48  32  64
Selective dynamics
Cartesian
  0.7860457386433704  1.4213869421812415  4.2730756584124929   F   F   F
 -0.0127189193702159  0.0400160127798939  1.9999275216749484   F   F   F
  0.7859659284522581  4.1986757792297702  4.2820078633581042   F   F   F
  9.6080537256101461  2.8173048498284397  2.0088597266205590   F   F   F
  0.7858861182610777  6.9759646162783122  4.2909400683034420   F   F   F
  9.6079739154189649  5.5945936868769639  2.0177919315658963   F   F   F
  3.1912987575318708  8.3646681464054637  4.2717208284989558   F   F   F
  3.1912189473406900  2.8100904723084201  4.2806530334445627   F   F   F
  1.6497245982468625  8.3706103982109266  6.6064954864432721   T   T   T
  1.6595284763827303  2.8112951606058383  6.5862882295029035   T   T   T
  1.6444638303702255  5.5788172418787179  6.5990449663218502   T   T   T
  4.0600763645166866  1.4200515454641593  6.6200083195314150   T   T   T
  2.3924542893270355  1.4287195429070676  2.0075048967070175   F   F   F
  3.1911391371495781  5.5873793093569448  4.2895852383899040   F   F   F
  4.0531979757924121  4.2016109108967656  6.6142523503071908   T   T   T
  2.3923744791359240  4.2060083799555965  2.0164371016526288   F   F   F
  5.5964719662291182  1.4215051653870490  4.2792982035310256   F   F   F
  6.4483730952795550  8.3672417601091826  6.6362344692853190   T   T   T
  4.7977073082155322  0.0401342359857015  2.0061500667934804   F   F   F
  5.5963921560380063  4.1987940024355774  4.2882304084766361   F   F   F
  6.4653826526330773  2.8153603723863907  6.6324461060478574   T   T   T
  4.7976274980244202  2.8174230730342473  2.0150822717390917   F   F   F
  4.0675322897211368  6.9806017632193829  6.6086110575635990   T   T   T
  2.3922946689448121  6.9832972170040790  2.0253693065982361   F   F   F
  5.5963123458468251  6.9760828394840599  4.2971626134219738   F   F   F
  6.4653163593886251  5.5853538916734049  6.6427630359983914   T   T   T
  4.7975476878332399  5.5947119100827116  2.0240144766844290   F   F   F
  8.0017249851175958  8.3647863696112701  4.2779433736174877   F   F   F
  8.0016451749264164  2.8102086955142278  4.2868755785630990   F   F   F
  8.8619117587415239  1.4115608868485274  6.5895021070379656   T   T   T
  7.2028805169128480  1.4288377661128751  2.0137274418255502   F   F   F
  8.0015653647353044  5.5874975325626925  4.2958077835084367   F   F   F
  8.8543262199415551  4.2049557145988574  6.6296286153414528   T   T   T
  7.2028007067217361  4.2061266031613442  2.0226596467708915   F   F   F
  8.8678636726591993  6.9808810318640653  6.6147957558122163   T   T   T
  7.2027208965305558  6.9834154402098862  2.0315918517167684   F   F   F
  4.9301282300187212  5.5811694247336909  8.9800649756959299   T   T   T
  7.3644060491461873  6.9833574293926164  8.9782645119400488   T   T   T
  0.1312068867878205  8.3668094236003707  8.9986317247189103   T   T   T
  7.3614367125365696  4.2032528836761438  9.0278490594751677   T   T   T
  0.1398648584582847  2.7964656375556247  8.9059664018642710   T   T   T
  0.1443527779556945  5.5985628119120516  8.9913908164767307   T   T   T
  2.5221044311021235  1.4287368862366587  8.9781351254071566   T   T   T
  2.5336856242953698  4.1992366541250243  8.9982652763435684   T   T   T
  4.9456754975339958  8.3688233499299844  9.0213891503823245   T   T   T
  2.5231582275865869  6.9667576388734629  8.9074191395743956   T   T   T
  4.9254656345740324  2.8216762948612550  8.9650094228121233   T   T   T
  7.3599030185576844  1.4172105606119720  8.9754768812369079   T   T   T
  5.2957024793163576  2.5311885956149474 12.3603772661263278   T   T   T
  4.8628272381806861  8.3637476907864663 11.3575580781223309   T   T   T
  2.8444385888337758  4.2168488962085737 12.3441878787512067   T   T   T
  0.2677516502817047  2.9366000961436787 11.9953430780934340   T   T   T
  9.4061436448470666  8.3680864437131710 12.2910471650263204   T   T   T
  2.3617142147082255  7.0968458233756166 11.9980515324077217   T   T   T
  6.9000615959075091  6.6739209816649332 12.3531992864431377   T   T   T
  7.3682897310627880  4.1814495302091492 11.3665619458616689   T   T   T
  4.7244128966604588  0.5576554101198130 15.5725498532355786   T   T   T
  5.2441971488099224  6.3092740196574333 14.6813135332082609   T   T   T
  2.2715932874639377  2.0628799447016068 15.5938480713115055   T   T   T
  9.4382665782686583  0.7401512492987743 14.9436605467324384   T   T   T
  0.1688407874409575  6.2658108233083301 15.5907195312376032   T   T   T
  2.6123359983498005  4.9090368045812722 14.9916899279324340   T   T   T
  7.3695520337393994  4.7516875212582432 15.5928519299805632   T   T   T
  6.8581123167111402  2.1503693495702794 14.7235717757939213   T   T   T
  0.0545745493532383  6.2248845003707594 18.3366666042592179   T   T   T
  9.4854849479568575  0.6317521013685014 19.0648547254505871   T   T   T
  2.2941759964232435  4.6803066697356739 19.0829760165551363   T   T   T
  4.7939495892102331  6.0832836049151862 19.1102325147172110   T   T   T
  4.7104903971905951  0.5095522463124244 18.3564330292753795   T   T   T
  2.2598819000106825  1.9497473789154076 18.3494680949998319   T   T   T
  7.0064306806134686  2.0079870149089256 19.1533388066183790   T   T   T
  7.2017048480364609  4.7395203542880937 18.3604638624757861   T   T   T
  4.7809026992935602  0.3637543116190977 22.8424453937467291   T   T   T
  4.7935296692804528  5.9685627068764910 21.9178179055984259   T   T   T
  7.0801952749607038  1.8649085025807355 21.9664971105625142   T   T   T
  9.5082213032938636  0.5120172704440876 21.8586193565272140   T   T   T
  0.0007805152521043  6.1366323691246798 22.5489087309584448   T   T   T
  7.1130181119072473  4.5045647122922725 22.7789098779608281   T   T   T
  2.2991198514749134  4.4961618465213427 21.8637395865318069   T   T   T
  2.4836402989285782  1.6888755604858319 22.5228564826644657   T   T   T
  3.6466957433381308  3.6504058267468400 12.2659918618111110   T   T   T
  3.9802379295884291  8.0155785524043104 11.6482663201696468   T   T   T
  2.0635877006549044  3.6297469931188835 12.2195248574126438   T   T   T
  0.5777075498167481  7.7880807206641132 12.2039897535891768   T   T   T
  8.6149995430881567  7.7939543051853644 12.1861023327291296   T   T   T
  5.9362830397481039  3.0522262212660007 11.8170446503682953   T   T   T
  4.9613587469285765  0.9785253887223430 11.6789895797624794   T   T   T
  0.4626215930154393  3.0127756888120660 11.0136613049392835   T   T   T
  0.0774435659307586  1.9732596924658015 12.0864170690116790   T   T   T
  6.3733188192809846  6.5138894897419624 13.1755286704335006   T   T   T
  2.5622843138952489  6.1375909904519688 12.1142332293113881   T   T   T
  2.1744461891828926  7.1471151294003059 11.0136881846458081   T   T   T
  8.2510257257670627  3.8418759932192454 11.6665493134231397   T   T   T
  5.8029530705598136  2.3701113944415075 13.1968803168154452   T   T   T
  6.2765772619352642  7.2067358624355649 11.8020235557534150   T   T   T
  7.2561742834825322  5.1283492744909660 11.6849648461298941   T   T   T
  3.0480690578496308  1.4877136708518579 15.3883895298270428   T   T   T
  4.4037567278461109  5.8134103450639270 14.8137362878431933   T   T   T
  1.4543950749534065  1.5938961114021672 15.2857919254161985   T   T   T
  0.9891600013149664  5.7846103233352224 15.3083038359439083   T   T   T
  9.0149411868573530  5.6810930917913840 15.3984333687504513   T   T   T
  4.7535817583699620  0.5179486371613241 16.5670297170400360   T   T   T
  5.0630272718420333  7.2302927879117975 15.0176611218445348   T   T   T
  9.4508431709509022  0.5232305264074499 13.9725158896294825   T   T   T
  9.5049209105690444  8.1729995509187408 15.3431268297202106   T   T   T
  6.6145629264586896  5.3312030407476385 15.3082800621923312   T   T   T
  2.5375454235857151  4.0111020221620377 15.3899386736640835   T   T   T
  2.6541882216031603  4.6907886688664826 14.0218164684800772   T   T   T
  7.7041015371036581  1.6530403279688657 14.8264585233118193   T   T   T
  5.4776837126759217  1.1552921241726331 15.3249748214886594   T   T   T
  7.2938956032300810  4.7230436964786620 16.5864745557778228   T   T   T
  7.0442142873919398  3.0698422204535905 15.0585012088254686   T   T   T
  1.5247865652537580  5.2458660666947692 18.8104104319402516   T   T   T
  0.7027719960015589  1.0849970459578486 18.7852363617697620   T   T   T
  3.1161440039703963  5.2082760632253198 18.9262253345265918   T   T   T
  3.8945082294132223  1.0451084519324763 18.5331115307404843   T   T   T
  5.4859078089705440  1.0494312044525307 18.6572233550971163   T   T   T
  0.1197227030067992  6.2408912393521563 17.3407145773487699   T   T   T
  9.5559397597678704  8.0186016982564023 18.7740472733201536   T   T   T
  4.8308435048241511  6.0927773204639042 20.1022147562564442   T   T   T
  4.7599682178880576  7.0369618370994198 18.8460857720747157   T   T   T
  7.8505050293729548  1.5312638214846914 18.9450117158083060   T   T   T
  2.2778527437655365  2.8945464164631076 18.6469934523046241   T   T   T
  2.2290491876713707  2.0106360294706520 17.3548067403247757   T   T   T
  6.3639292990003939  5.1998609516644292 18.6241821140533510   T   T   T
  8.8420607707637959  5.7243612519979470 18.5140510997650445   T   T   T
  6.9790757874330644  1.9920553518142687 20.1452411907684734   T   T   T
  7.1225555933670126  3.8010151890867272 18.6697257726434280   T   T   T
  6.3224171166659167  1.3141665660671729 22.2814720312961043   T   T   T
  5.6026839028398436  5.5102985563515707 22.2503668711238305   T   T   T
  7.9145836211062672  1.3239743450172634 22.0651499950921846   T   T   T
  8.8436269428578136  5.5530923343971326 22.4379914295825102   T   T   T
  0.7890460311488042  5.5821793179981078 22.3340297603197655   T   T   T
  4.7921349911204576  0.3393586870434875 23.8151368108610342   T   T   T
  4.8125367274784878  6.8924939324480290 22.2672877462015606   T   T   T
  9.5496868495621570  0.5166437445833472 20.8648814050816753   T   T   T
  9.5389187046356625  7.8812512274431530 22.1087825885230131   T   T   T
  3.1317571309851786  4.9847126216444018 22.0622621359606512   T   T   T
  7.1112302431163039  3.5470828357770947 22.4929771749522729   T   T   T
  7.2164362224033098  4.4704526574547581 23.7453410389403246   T   T   T
  1.6078432184364013  1.2865277558914112 22.3138085258500212   T   T   T
  3.9170576303863669  0.8488920789699020 22.6311643052747939   T   T   T
  2.2522737384782854  4.5294575800714370 20.8708066761144551   T   T   T
  2.4201249065295003  2.6482918089352920 22.2993846776867315   T   T   T
